(set-info :Origin "This instance was generated by: BanditFuzz-- an RL fuzzer for SMT solvers" )
(set-info :Author "Joe Scott, Fed Mora, Vijay Ganesh" )
(set-info :Contact "Joe Scott, joseph.scott@uwaterloo.ca")
(set-logic QF_BV)
(declare-const bool_0 Bool)
(declare-const bool_1 Bool)
(declare-const bool_2 Bool)
(declare-const bool_3 Bool)
(declare-const bool_4 Bool)
(declare-const bv_0 (_ BitVec 32))
(declare-const bv_1 (_ BitVec 32))
(declare-const bv_2 (_ BitVec 32))
(declare-const bv_3 (_ BitVec 32))
(declare-const bv_4 (_ BitVec 32))
(assert (bvsge (bvlshr (bvsrem bv_1 bv_2) (bvor bv_4 bv_4)) (bvor (bvmul bv_4 #x5c5bebc8 ) (bvshl #x4f82ee8e  #xf8d74864 ))))
(assert (=> (bvult (bvxor #x65036213  bv_0) (bvsdiv #xcc1c767e  #x496064e8 )) (bvslt (bvshl #xfa52f097  #xf37bc644 ) (bvadd bv_1 bv_4))))
(assert (=> (or (bvuge #xa27026df  #xe313abfd ) (bvsge bv_4 #x71dc5016 )) (bvule (bvand bv_0 #x12f3a05a ) (bvshl #xb847be7a  #x513aed4a ))))
(assert (xor (bvule (bvsdiv bv_4 #xffae0176 ) (bvashr #x6d11410b  #x09cb7d7e )) (xor (bvsgt #x63cde50a  bv_1) (bvsgt #xe5d5c3e4  bv_4))))
(assert (bvult (bvsmod (bvnor #x962a2f96  bv_3) (bvsmod bv_2 #x78a3f2e3 )) (bvsmod (bvxor #x018d75b4  bv_4) (bvsub bv_1 bv_0))))
(check-sat)
(exit)
